c User generated cnf file
p cnf 15 23
15 5 -12 0 
6 15 -7 0 
10 -10 1 0 
7 -6 7 0 
1 -6 14 0 
3 -4 4 0 
13 -12 13 0 
3 -4 3 0 
12 1 -6 0 
10 9 -9 0 
14 -8 6 0 
15 -2 7 0 
8 10 -14 0 
1 -2 10 0 
13 2 -15 0 
2 -15 11 0 
11 3 -9 0 
1 7 -5 0 
11 10 -7 0 
9 5 -9 0 
10 -10 12 0 
10 -5 3 0 
14 -6 13 0 
